c exact Rule 30 active-core diagonal CNF
c var 1 constant.0
c var 2 constant.1
c var 3 word.0.0.high
c var 4 word.0.0.low
c var 5 word.0.1.high
c var 6 word.0.1.low
c var 7 word.0.2.high
c var 8 word.0.2.low
c var 9 word.0.3.high
c var 10 word.0.3.low
c var 11 time.0.0.input-or
c var 12 time.0.0.carry-high
c var 13 time.0.0.carry-or
c var 14 time.0.0.carry-low
c var 15 time.0.1.input-or
c var 16 time.0.1.carry-high
c var 17 time.0.1.carry-or
c var 18 time.0.1.carry-low
c var 19 time.0.2.input-or
c var 20 time.0.2.carry-high
c var 21 time.0.2.carry-or
c var 22 time.0.2.carry-low
c var 23 time.0.3.input-or
c var 24 time.0.3.carry-high
c var 25 time.0.3.carry-or
c var 26 time.0.3.carry-low
c var 27 time.1.0.input-or
c var 28 time.1.0.carry-high
c var 29 time.1.0.carry-or
c var 30 time.1.0.carry-low
c var 31 time.1.1.input-or
c var 32 time.1.1.carry-high
c var 33 time.1.1.carry-or
c var 34 time.1.1.carry-low
c var 35 time.1.2.input-or
c var 36 time.1.2.carry-high
c var 37 time.1.2.carry-or
c var 38 time.1.2.carry-low
c var 39 time.1.3.input-or
c var 40 time.1.3.carry-high
c var 41 time.1.3.carry-or
c var 42 time.1.3.carry-low
c var 43 time.1.4.input-or
c var 44 time.1.4.carry-high
c var 45 time.1.4.carry-or
c var 46 time.1.4.carry-low
c var 47 time.2.0.input-or
c var 48 time.2.0.carry-high
c var 49 time.2.0.carry-or
c var 50 time.2.0.carry-low
c var 51 time.2.1.input-or
c var 52 time.2.1.carry-high
c var 53 time.2.1.carry-or
c var 54 time.2.1.carry-low
c var 55 time.2.2.input-or
c var 56 time.2.2.carry-high
c var 57 time.2.2.carry-or
c var 58 time.2.2.carry-low
c var 59 time.2.3.input-or
c var 60 time.2.3.carry-high
c var 61 time.2.3.carry-or
c var 62 time.2.3.carry-low
c var 63 time.2.4.input-or
c var 64 time.2.4.carry-high
c var 65 time.2.4.carry-or
c var 66 time.2.4.carry-low
c var 67 time.2.5.input-or
c var 68 time.2.5.carry-high
c var 69 time.2.5.carry-or
c var 70 time.2.5.carry-low
c var 71 time.3.0.input-or
c var 72 time.3.0.carry-high
c var 73 time.3.0.carry-or
c var 74 time.3.0.carry-low
c var 75 time.3.1.input-or
c var 76 time.3.1.carry-high
c var 77 time.3.1.carry-or
c var 78 time.3.1.carry-low
c var 79 time.3.2.input-or
c var 80 time.3.2.carry-high
c var 81 time.3.2.carry-or
c var 82 time.3.2.carry-low
c var 83 time.3.3.input-or
c var 84 time.3.3.carry-high
c var 85 time.3.3.carry-or
c var 86 time.3.3.carry-low
c var 87 time.3.4.input-or
c var 88 time.3.4.carry-high
c var 89 time.3.4.carry-or
c var 90 time.3.4.carry-low
c var 91 time.3.5.input-or
c var 92 time.3.5.carry-high
c var 93 time.3.5.carry-or
c var 94 time.3.5.carry-low
c var 95 time.3.6.input-or
c var 96 time.3.6.carry-high
c var 97 time.3.6.carry-or
c var 98 time.3.6.carry-low
c var 99 time.4.0.input-or
c var 100 time.4.0.carry-high
c var 101 time.4.0.carry-or
c var 102 time.4.0.carry-low
c var 103 time.4.1.input-or
c var 104 time.4.1.carry-high
c var 105 time.4.1.carry-or
c var 106 time.4.1.carry-low
c var 107 time.4.2.input-or
c var 108 time.4.2.carry-high
c var 109 time.4.2.carry-or
c var 110 time.4.2.carry-low
c var 111 time.4.3.input-or
c var 112 time.4.3.carry-high
c var 113 time.4.3.carry-or
c var 114 time.4.3.carry-low
c var 115 time.4.4.input-or
c var 116 time.4.4.carry-high
c var 117 time.4.4.carry-or
c var 118 time.4.4.carry-low
c var 119 time.4.5.input-or
c var 120 time.4.5.carry-high
c var 121 time.4.5.carry-or
c var 122 time.4.5.carry-low
c var 123 time.4.6.input-or
c var 124 time.4.6.carry-high
c var 125 time.4.6.carry-or
c var 126 time.4.6.carry-low
c var 127 time.4.7.input-or
c var 128 time.4.7.carry-high
c var 129 time.4.7.carry-or
c var 130 time.4.7.carry-low
p cnf 130 438
-1 0
2 0
9 0
10 0
-3 11 0
-4 11 0
3 4 -11 0
-1 -11 -12 0
1 11 -12 0
1 -11 12 0
-1 11 12 0
-1 13 0
-3 13 0
1 3 -13 0
-1 -13 -14 0
1 13 -14 0
1 -13 14 0
-1 13 14 0
-5 15 0
-6 15 0
5 6 -15 0
-12 -15 -16 0
12 15 -16 0
12 -15 16 0
-12 15 16 0
-12 17 0
-5 17 0
12 5 -17 0
-14 -17 -18 0
14 17 -18 0
14 -17 18 0
-14 17 18 0
-7 19 0
-8 19 0
7 8 -19 0
-16 -19 -20 0
16 19 -20 0
16 -19 20 0
-16 19 20 0
-16 21 0
-7 21 0
16 7 -21 0
-18 -21 -22 0
18 21 -22 0
18 -21 22 0
-18 21 22 0
-9 23 0
-10 23 0
9 10 -23 0
-20 -23 -24 0
20 23 -24 0
20 -23 24 0
-20 23 24 0
-20 25 0
-9 25 0
20 9 -25 0
-22 -25 -26 0
22 25 -26 0
22 -25 26 0
-22 25 26 0
24 26 0
-24 -26 0
-14 27 0
-12 27 0
14 12 -27 0
-1 -27 -28 0
1 27 -28 0
1 -27 28 0
-1 27 28 0
-1 29 0
-14 29 0
1 14 -29 0
-1 -29 -30 0
1 29 -30 0
1 -29 30 0
-1 29 30 0
-18 31 0
-16 31 0
18 16 -31 0
-28 -31 -32 0
28 31 -32 0
28 -31 32 0
-28 31 32 0
-28 33 0
-18 33 0
28 18 -33 0
-30 -33 -34 0
30 33 -34 0
30 -33 34 0
-30 33 34 0
-22 35 0
-20 35 0
22 20 -35 0
-32 -35 -36 0
32 35 -36 0
32 -35 36 0
-32 35 36 0
-32 37 0
-22 37 0
32 22 -37 0
-34 -37 -38 0
34 37 -38 0
34 -37 38 0
-34 37 38 0
-26 39 0
-24 39 0
26 24 -39 0
-36 -39 -40 0
36 39 -40 0
36 -39 40 0
-36 39 40 0
-36 41 0
-26 41 0
36 26 -41 0
-38 -41 -42 0
38 41 -42 0
38 -41 42 0
-38 41 42 0
-2 43 0
-2 43 0
2 2 -43 0
-40 -43 -44 0
40 43 -44 0
40 -43 44 0
-40 43 44 0
-40 45 0
-2 45 0
40 2 -45 0
-42 -45 -46 0
42 45 -46 0
42 -45 46 0
-42 45 46 0
44 46 0
-44 -46 0
24 44 0
-30 47 0
-28 47 0
30 28 -47 0
-1 -47 -48 0
1 47 -48 0
1 -47 48 0
-1 47 48 0
-1 49 0
-30 49 0
1 30 -49 0
-1 -49 -50 0
1 49 -50 0
1 -49 50 0
-1 49 50 0
-34 51 0
-32 51 0
34 32 -51 0
-48 -51 -52 0
48 51 -52 0
48 -51 52 0
-48 51 52 0
-48 53 0
-34 53 0
48 34 -53 0
-50 -53 -54 0
50 53 -54 0
50 -53 54 0
-50 53 54 0
-38 55 0
-36 55 0
38 36 -55 0
-52 -55 -56 0
52 55 -56 0
52 -55 56 0
-52 55 56 0
-52 57 0
-38 57 0
52 38 -57 0
-54 -57 -58 0
54 57 -58 0
54 -57 58 0
-54 57 58 0
-42 59 0
-40 59 0
42 40 -59 0
-56 -59 -60 0
56 59 -60 0
56 -59 60 0
-56 59 60 0
-56 61 0
-42 61 0
56 42 -61 0
-58 -61 -62 0
58 61 -62 0
58 -61 62 0
-58 61 62 0
-46 63 0
-44 63 0
46 44 -63 0
-60 -63 -64 0
60 63 -64 0
60 -63 64 0
-60 63 64 0
-60 65 0
-46 65 0
60 46 -65 0
-62 -65 -66 0
62 65 -66 0
62 -65 66 0
-62 65 66 0
-2 67 0
-2 67 0
2 2 -67 0
-64 -67 -68 0
64 67 -68 0
64 -67 68 0
-64 67 68 0
-64 69 0
-2 69 0
64 2 -69 0
-66 -69 -70 0
66 69 -70 0
66 -69 70 0
-66 69 70 0
68 70 0
-68 -70 0
44 68 0
-50 71 0
-48 71 0
50 48 -71 0
-1 -71 -72 0
1 71 -72 0
1 -71 72 0
-1 71 72 0
-1 73 0
-50 73 0
1 50 -73 0
-1 -73 -74 0
1 73 -74 0
1 -73 74 0
-1 73 74 0
-54 75 0
-52 75 0
54 52 -75 0
-72 -75 -76 0
72 75 -76 0
72 -75 76 0
-72 75 76 0
-72 77 0
-54 77 0
72 54 -77 0
-74 -77 -78 0
74 77 -78 0
74 -77 78 0
-74 77 78 0
-58 79 0
-56 79 0
58 56 -79 0
-76 -79 -80 0
76 79 -80 0
76 -79 80 0
-76 79 80 0
-76 81 0
-58 81 0
76 58 -81 0
-78 -81 -82 0
78 81 -82 0
78 -81 82 0
-78 81 82 0
-62 83 0
-60 83 0
62 60 -83 0
-80 -83 -84 0
80 83 -84 0
80 -83 84 0
-80 83 84 0
-80 85 0
-62 85 0
80 62 -85 0
-82 -85 -86 0
82 85 -86 0
82 -85 86 0
-82 85 86 0
-66 87 0
-64 87 0
66 64 -87 0
-84 -87 -88 0
84 87 -88 0
84 -87 88 0
-84 87 88 0
-84 89 0
-66 89 0
84 66 -89 0
-86 -89 -90 0
86 89 -90 0
86 -89 90 0
-86 89 90 0
-70 91 0
-68 91 0
70 68 -91 0
-88 -91 -92 0
88 91 -92 0
88 -91 92 0
-88 91 92 0
-88 93 0
-70 93 0
88 70 -93 0
-90 -93 -94 0
90 93 -94 0
90 -93 94 0
-90 93 94 0
-2 95 0
-2 95 0
2 2 -95 0
-92 -95 -96 0
92 95 -96 0
92 -95 96 0
-92 95 96 0
-92 97 0
-2 97 0
92 2 -97 0
-94 -97 -98 0
94 97 -98 0
94 -97 98 0
-94 97 98 0
96 98 0
-96 -98 0
68 96 0
-74 99 0
-72 99 0
74 72 -99 0
-1 -99 -100 0
1 99 -100 0
1 -99 100 0
-1 99 100 0
-1 101 0
-74 101 0
1 74 -101 0
-1 -101 -102 0
1 101 -102 0
1 -101 102 0
-1 101 102 0
-78 103 0
-76 103 0
78 76 -103 0
-100 -103 -104 0
100 103 -104 0
100 -103 104 0
-100 103 104 0
-100 105 0
-78 105 0
100 78 -105 0
-102 -105 -106 0
102 105 -106 0
102 -105 106 0
-102 105 106 0
-82 107 0
-80 107 0
82 80 -107 0
-104 -107 -108 0
104 107 -108 0
104 -107 108 0
-104 107 108 0
-104 109 0
-82 109 0
104 82 -109 0
-106 -109 -110 0
106 109 -110 0
106 -109 110 0
-106 109 110 0
-86 111 0
-84 111 0
86 84 -111 0
-108 -111 -112 0
108 111 -112 0
108 -111 112 0
-108 111 112 0
-108 113 0
-86 113 0
108 86 -113 0
-110 -113 -114 0
110 113 -114 0
110 -113 114 0
-110 113 114 0
-90 115 0
-88 115 0
90 88 -115 0
-112 -115 -116 0
112 115 -116 0
112 -115 116 0
-112 115 116 0
-112 117 0
-90 117 0
112 90 -117 0
-114 -117 -118 0
114 117 -118 0
114 -117 118 0
-114 117 118 0
-94 119 0
-92 119 0
94 92 -119 0
-116 -119 -120 0
116 119 -120 0
116 -119 120 0
-116 119 120 0
-116 121 0
-94 121 0
116 94 -121 0
-118 -121 -122 0
118 121 -122 0
118 -121 122 0
-118 121 122 0
-98 123 0
-96 123 0
98 96 -123 0
-120 -123 -124 0
120 123 -124 0
120 -123 124 0
-120 123 124 0
-120 125 0
-98 125 0
120 98 -125 0
-122 -125 -126 0
122 125 -126 0
122 -125 126 0
-122 125 126 0
-2 127 0
-2 127 0
2 2 -127 0
-124 -127 -128 0
124 127 -128 0
124 -127 128 0
-124 127 128 0
-124 129 0
-2 129 0
124 2 -129 0
-126 -129 -130 0
126 129 -130 0
126 -129 130 0
-126 129 130 0
128 130 0
-128 -130 0
96 128 0
